data/processed_heuristic-threshold/instances/1/9/ds_904_courier_1558/pairwise.tsp
NAME: ds_904_courier_1558
TYPE: TSP
COMMENT: nil
DIMENSION: 10
EDGE_WEIGHT_TYPE: EXPLICIT
EDGE_WEIGHT_FORMAT: FULL_MATRIX
EDGE_WEIGHT_SECTION
9999 1667 1632 1575 854 1974 1827 32 1930 53 
1667 9999 151 130 1034 335 317 1695 3226 1690 
1632 151 9999 78 941 343 227 1661 3123 1651 
1575 130 78 9999 911 401 305 1604 3101 1595 
854 1034 941 911 9999 1272 1083 886 2195 850 
1974 335 343 401 1272 9999 217 2003 3434 1994 
1827 317 227 305 1083 217 9999 1857 3226 1842 
32 1695 1661 1604 886 2003 1857 9999 1926 64 
1930 3226 3123 3101 2195 3434 3226 1926 9999 1878 
53 1690 1651 1595 850 1994 1842 64 1878 9999 
