data/processed_heuristic-threshold/instances/1/9/ds_904_courier_1558/pairwise.sol
10
0 3 1 5 6 2 4 8 9 7 
